\ LP format - for model browsing. Use MPS format to capture full model detail.
Minimize
  - x0 - 5 x2 + 4 x3
Subject To
 constr(0): x1 + 4 x2 - 2 x3 <= 7
 constr(1): 2 x0 + 4 x1 - 2 x2 - 3 x3 = 2
 constr(2): 2 x1 - 5 x2 + 4 x3 >= -0
 constr(3): 2 x1 - 3 x2 >= -0
Bounds
 x0 <= 1
 x1 <= 4
 x2 <= 2
 x3 <= 3
Generals
 x0 x1 x2 x3
End
